p cnf 20 30
1 2 0
3 4 0
5 6 0
5 7 0
8 9 0
8 10 0
11 12 0
6 -7 0
9 -10 0
-1 -2 0
-3 -4 0
-5 -6 0
-8 -9 0
-11 -12 0
3 13 -1 0
3 14 -2 0
11 15 -1 0
11 16 -2 0
4 -1 -13 0
4 -2 -14 0
12 -1 -15 0
12 -2 -16 0
1 17 -5 -8 0
1 18 -6 -8 0
1 19 -5 -9 0
1 20 -6 -9 0
2 -5 -8 -17 0
2 -5 -9 -19 0
2 -6 -8 -18 0
2 -6 -9 -20 0